#######################################
### Exact MIP solver for the HHCRSP ###
#######################################
-- Instance file: new-instances/HHCRSP_100_20_72_1.2_R_C.txt
-- Max threads: 4
-- Time limit: 999999 seconds
-- Use initial solution: No
Trivial flow violations prevented generating 47451 variables.
Model exported.
Version identifier: 20.1.0.0 | 2020-11-10 | 9bedb6d68
CPXPARAM_Threads                                 4
CPXPARAM_TimeLimit                               999999
Parallel mode: deterministic, using up to 4 threads for concurrent optimization:
 * Starting dual Simplex on 1 thread...
 * Starting Barrier on 3 threads...
Tried aggregator 1 time.
LP Presolve eliminated 5586 rows and 1374 columns.
Reduced LP has 52852 rows, 50630 columns, and 613933 nonzeros.
Presolve time = 0.33 sec. (158.73 ticks)
Symmetry aggregator did 56156 additional substitutions.
Initializing dual steep norms . . .

Iteration log . . .
Iteration:     1   Dual objective     =             0.666667
Iteration:   498   Dual objective     =           137.000000

Dual crossover.
  Dual:  Fixing 214 variables.
      213 DMoves:  Infeasibility  6.45039679e-14  Objective  1.37000000e+02
        0 DMoves:  Infeasibility  4.79616448e-14  Objective  1.37000000e+02
  Dual:  Pushed 6, exchanged 208.
  Primal:  Fixing 111 variables.
      110 PMoves:  Infeasibility  4.44089210e-16  Objective  1.37000000e+02
        0 PMoves:  Infeasibility  4.44089210e-16  Objective  1.37000000e+02
  Primal:  Pushed 58, exchanged 53.

Dual simplex solved model.


Solution status from MIP model:
-- Processing time: 0.535 sec.
-- Memory used: 120.158 MB
-- Best bound: inf
-- Obj value: 137
-- Gap: inf%
-- Total distance: 411
-- Total tardiness: 0
-- Largest tardiness: 0
